SDVRP instances/p05/p05_1030_tsplib0_split0.vrp
NAME:.\SDVRP_split
BEST_KNOWN: 0
COMMENT: 0
DIMENSION: 805
CAPACITY: 200
EDGE_WEIGHT_FORMAT: FUNCTION
EDGE_WEIGHT_TYPE: EXACT_2D
NODE_COORD_SECTION
1 0.00000 0.00000
2 -13 -13
3 -13 -13
4 -13 -13
5 -13 -13
6 1 -9
7 1 -9
8 1 -9
9 1 -9
10 1 -9
11 -14 10
12 -14 10
13 -14 10
14 -14 10
15 -14 10
16 -14 10
17 10 0
18 10 0
19 20 -15
20 20 -15
21 20 -15
22 20 -15
23 20 -15
24 -2 -1
25 -2 -1
26 -2 -1
27 -2 -1
28 15 15
29 15 15
30 15 15
31 15 15
32 15 15
33 15 15
34 15 15
35 20 10
36 20 10
37 20 10
38 -9 24
39 -9 24
40 -9 24
41 -9 24
42 -9 24
43 5 31
44 5 31
45 20 30
46 20 30
47 20 30
48 0 16
49 0 16
50 0 16
51 0 16
52 0 16
53 27 0
54 27 0
55 27 0
56 27 0
57 27 0
58 27 0
59 27 22
60 27 -11
61 27 -11
62 27 -11
63 27 -11
64 27 -11
65 -14 1
66 -14 1
67 -14 1
68 -2 9
69 -2 9
70 -2 9
71 -26 21
72 27 13
73 27 13
74 27 13
75 27 13
76 31 -21
77 31 -21
78 9 -22
79 9 -22
80 9 -22
81 -9 -22
82 -9 -22
83 -9 -22
84 -9 -22
85 -24 -7
86 -24 -7
87 -24 -7
88 -24 -7
89 -28 8
90 -28 8
91 -28 8
92 -18 29
93 -18 29
94 -18 29
95 6 11
96 6 11
97 6 11
98 6 11
99 6 11
100 6 11
101 20 -1
102 20 -1
103 0 -19
104 0 -19
105 0 -19
106 17 -9
107 17 -9
108 17 -9
109 17 -9
110 8 -9
111 8 -9
112 8 -9
113 -4 41
114 -4 41
115 -4 41
116 -4 41
117 -13 18
118 -13 18
119 -13 18
120 -9 -6
121 -9 -6
122 -9 -6
123 -9 -6
124 15 5
125 15 5
126 15 5
127 15 5
128 15 5
129 20 15
130 20 15
131 20 15
132 20 15
133 19 -25
134 19 -25
135 19 -25
136 19 -25
137 19 -25
138 19 -25
139 19 -25
140 25 -20
141 25 -20
142 25 -20
143 12 31
144 12 31
145 12 31
146 12 31
147 12 31
148 12 31
149 12 31
150 -5 25
151 -5 25
152 -5 25
153 -5 25
154 -5 25
155 -5 25
156 -5 25
157 -5 15
158 -5 15
159 -5 15
160 -5 15
161 -23 -18
162 -23 -18
163 -23 -18
164 -23 -18
165 -23 -18
166 -20 -21
167 -20 -21
168 -19 -16
169 -19 -16
170 -19 -16
171 -19 -16
172 -14 13
173 -14 13
174 -14 13
175 -14 13
176 15 -5
177 15 -5
178 15 -5
179 15 -5
180 15 -5
181 16 7
182 16 7
183 16 7
184 15 -20
185 15 -20
186 15 -20
187 15 -20
188 15 -20
189 15 -20
190 15 -20
191 13 -14
192 13 -14
193 13 -14
194 13 -14
195 13 -14
196 13 -14
197 -23 3
198 -23 3
199 -23 3
200 -23 3
201 2 17
202 2 17
203 2 17
204 14 14
205 14 14
206 14 14
207 14 14
208 17 29
209 17 29
210 17 29
211 17 29
212 -15 -9
213 -15 -9
214 -15 -9
215 5 -5
216 5 -5
217 5 -5
218 5 -5
219 5 -5
220 -14 12
221 -14 12
222 -14 12
223 -14 12
224 -14 12
225 -14 12
226 -18 28
227 -18 28
228 -18 28
229 -18 28
230 -18 28
231 -18 28
232 -4 27
233 -4 27
234 -4 27
235 17 -2
236 17 -2
237 17 -2
238 17 -2
239 17 -2
240 16 -14
241 16 -14
242 16 -14
243 16 -14
244 16 -14
245 7 6
246 7 6
247 7 6
248 7 6
249 -4 -3
250 -4 -3
251 -4 -3
252 -4 -3
253 -4 -3
254 -30 -10
255 -30 -10
256 -23 7
257 -23 7
258 -23 7
259 1 -19
260 1 -19
261 1 -19
262 17 6
263 17 6
264 17 6
265 17 6
266 -8 -12
267 -8 -12
268 -8 -12
269 -8 -12
270 -8 -12
271 -8 -12
272 -8 -12
273 -18 -2
274 -18 -2
275 -18 -2
276 -18 -2
277 -22 -22
278 -22 -22
279 -22 -22
280 22 23
281 22 23
282 22 23
283 22 23
284 22 23
285 22 23
286 22 23
287 27 7
288 27 7
289 27 7
290 27 7
291 7 22
292 7 22
293 7 22
294 7 22
295 7 22
296 7 22
297 -19 22
298 -19 22
299 -19 22
300 -19 22
301 -19 22
302 -27 17
303 -27 17
304 -27 17
305 -27 17
306 -28 3
307 -28 3
308 -28 3
309 -28 3
310 -28 3
311 -28 3
312 -28 3
313 -8 33
314 -8 33
315 -5 13
316 -5 13
317 -5 13
318 -5 13
319 8 32
320 8 32
321 8 32
322 23 13
323 23 13
324 23 13
325 23 13
326 23 13
327 23 -8
328 23 -8
329 2 34
330 2 34
331 2 34
332 3 11
333 3 11
334 3 11
335 3 11
336 11 -25
337 11 -25
338 11 -25
339 26 -2
340 26 -2
341 26 -2
342 26 -2
343 26 -2
344 27 28
345 27 28
346 27 28
347 27 28
348 28 34
349 28 34
350 28 34
351 28 34
352 28 34
353 28 34
354 28 34
355 -3 -13
356 -3 -13
357 -3 -13
358 10 0
359 10 0
360 10 0
361 10 0
362 10 0
363 10 0
364 10 0
365 24 -20
366 24 -20
367 24 -20
368 -30 -29
369 -30 -29
370 -30 -29
371 -30 -29
372 -25 -18
373 -25 -18
374 -25 -18
375 -14 -25
376 -14 -25
377 -14 -25
378 -30 29
379 -30 29
380 -30 29
381 -5 -20
382 -5 -20
383 -5 -20
384 -5 -20
385 -5 -20
386 4 -25
387 4 -25
388 4 -25
389 4 -25
390 4 -25
391 4 -25
392 -3 4
393 -3 4
394 -3 4
395 -3 4
396 -3 4
397 -10 -3
398 -10 -3
399 -10 -3
400 -10 20
401 -10 20
402 13 -7
403 13 -7
404 13 -7
405 13 -7
406 13 -7
407 13 -7
408 21 2
409 21 2
410 6 14
411 6 14
412 6 14
413 0 -18
414 0 -18
415 0 -18
416 0 -18
417 20 10
418 20 10
419 20 10
420 20 -15
421 20 -15
422 -20 -5
423 -20 -5
424 -20 -5
425 -20 -5
426 -20 -5
427 -20 -5
428 -10 -5
429 -10 -5
430 -10 -5
431 -10 -5
432 -10 -5
433 -10 -5
434 -15 15
435 -15 15
436 -15 15
437 -15 15
438 -15 15
439 -25 8
440 -25 8
441 -25 8
442 20 25
443 20 25
444 -5 25
445 -5 25
446 -5 25
447 -15 30
448 -15 30
449 -15 30
450 -15 30
451 -15 30
452 15 0
453 15 0
454 15 0
455 15 0
456 15 0
457 -5 -10
458 -5 -10
459 -5 -10
460 -5 -10
461 -20 -25
462 -5 -30
463 -5 -30
464 -5 -30
465 -25 -15
466 -25 -15
467 -25 -15
468 -25 -15
469 -25 -15
470 -30 -5
471 -30 -5
472 -30 -5
473 -30 -5
474 -30 -5
475 -15 5
476 -15 5
477 -15 5
478 -15 5
479 -20 25
480 -20 25
481 -20 25
482 -20 25
483 10 30
484 10 30
485 10 -15
486 10 -15
487 10 -15
488 10 -15
489 10 -15
490 10 -15
491 10 -25
492 10 -25
493 10 -25
494 10 -25
495 20 -30
496 20 -30
497 20 -30
498 20 -30
499 20 -30
500 20 -30
501 20 -30
502 30 0
503 30 0
504 30 -15
505 30 -15
506 30 -15
507 30 -15
508 30 -15
509 10 -5
510 10 -5
511 10 -5
512 10 -5
513 0 5
514 0 5
515 6 2
516 6 2
517 6 2
518 6 2
519 6 2
520 6 2
521 29 7
522 29 7
523 29 7
524 29 7
525 29 7
526 29 7
527 29 7
528 5 25
529 5 25
530 5 25
531 5 25
532 5 25
533 -4 17
534 -4 17
535 -4 17
536 -4 17
537 -4 17
538 -4 17
539 0 34
540 0 34
541 0 34
542 0 34
543 18 17
544 18 17
545 18 17
546 30 20
547 30 20
548 30 20
549 28 30
550 28 30
551 28 30
552 28 30
553 28 30
554 28 30
555 -33 25
556 -33 25
557 -33 25
558 -15 -15
559 -15 -15
560 -15 -15
561 -30 -30
562 -30 -30
563 25 -23
564 25 -23
565 25 -23
566 5 -10
567 5 -10
568 5 -10
569 7 -28
570 7 -28
571 7 -28
572 7 -28
573 7 -28
574 7 -28
575 -11 -23
576 -11 -23
577 -12 -32
578 -12 -32
579 -12 -32
580 -24 -21
581 -24 -21
582 -24 -21
583 -29 3
584 -29 3
585 -29 3
586 -29 3
587 -29 3
588 -33 13
589 -33 13
590 -33 13
591 -33 13
592 -27 21
593 -27 21
594 -27 21
595 -27 21
596 -27 21
597 -22 17
598 -22 17
599 -22 17
600 -22 17
601 -22 17
602 -22 17
603 -22 17
604 -29 33
605 -29 33
606 -29 33
607 -29 33
608 -29 33
609 12 12
610 12 12
611 14 23
612 14 23
613 14 23
614 14 23
615 -8 8
616 -8 8
617 -8 8
618 -8 8
619 -8 8
620 -8 8
621 -8 8
622 2 -4
623 2 -4
624 2 -4
625 22 -6
626 22 -6
627 22 -6
628 22 -6
629 22 -6
630 22 -6
631 22 -6
632 28 -12
633 28 -12
634 28 -12
635 28 -12
636 28 -12
637 28 -12
638 18 -23
639 18 -23
640 18 -23
641 18 -23
642 18 -23
643 18 -23
644 -3 -23
645 -3 -23
646 1 -9
647 1 -9
648 1 -9
649 1 -9
650 1 -9
651 -14 -11
652 -14 -11
653 -14 -11
654 -18 -1
655 -18 -1
656 -18 -1
657 -18 -1
658 -18 -1
659 -23 -11
660 -23 -11
661 -11 23
662 -8 34
663 -8 34
664 -8 34
665 -8 34
666 -20 42
667 -20 42
668 27 42
669 27 42
670 27 42
671 27 42
672 14 38
673 32 -30
674 32 -30
675 21 4
676 21 4
677 21 4
678 21 4
679 21 4
680 21 4
681 21 4
682 2 12
683 2 12
684 2 12
685 2 12
686 2 12
687 2 12
688 2 21
689 2 21
690 22 33
691 12 -19
692 12 -19
693 9 -18
694 9 -18
695 9 -18
696 9 -18
697 9 -18
698 9 -18
699 11 -22
700 11 -22
701 11 -22
702 14 -24
703 14 -24
704 14 -24
705 14 -24
706 14 -24
707 14 7
708 14 7
709 14 7
710 18 8
711 18 8
712 18 8
713 18 8
714 18 8
715 18 8
716 26 17
717 26 17
718 26 17
719 26 17
720 22 13
721 22 13
722 21 2
723 21 2
724 21 2
725 21 2
726 21 2
727 21 2
728 20 19
729 20 19
730 20 19
731 20 19
732 -20 12
733 -20 12
734 -20 12
735 -20 12
736 -21 2
737 -21 2
738 -21 2
739 -24 -4
740 -24 -4
741 -24 -4
742 -19 -13
743 -19 -13
744 -31 -17
745 -31 -17
746 -7 -17
747 -7 -17
748 -9 17
749 -9 17
750 -9 17
751 -9 17
752 -9 0
753 -9 0
754 -9 0
755 -9 0
756 -9 0
757 -4 32
758 -4 32
759 -4 32
760 -4 32
761 -4 32
762 -4 32
763 -20 -16
764 -20 -16
765 -20 -16
766 -20 -16
767 -20 -16
768 -13 -13
769 -13 -13
770 -13 -13
771 -13 -13
772 -13 -13
773 -13 -13
774 -13 -13
775 -17 -11
776 -17 -11
777 -17 -11
778 -17 -11
779 -17 -11
780 -9 -8
781 -9 -8
782 -9 -8
783 -9 -8
784 -9 -8
785 -10 -11
786 -10 -11
787 -10 -11
788 -10 -11
789 -13 -8
790 -13 -8
791 -10 -14
792 -10 -14
793 -10 -14
794 -16 -14
795 -16 -14
796 -16 -14
797 -16 -14
798 -15 -9
799 -15 -9
800 -15 -9
801 -15 -9
802 -15 -9
803 -17 -17
804 -17 -17
805 -17 -17
DEMAND_SECTION
1 0
2 40
3 10
4 2
5 2
6 20
7 10
8 2
9 2
10 1
11 20
12 2
13 2
14 2
15 2
16 1
17 40
18 2
19 40
20 10
21 2
22 2
23 2
24 40
25 10
26 2
27 2
28 20
29 10
30 2
31 2
32 2
33 2
34 1
35 20
36 2
37 2
38 20
39 2
40 2
41 2
42 2
43 20
44 1
45 40
46 10
47 2
48 20
49 10
50 2
51 2
52 1
53 20
54 10
55 2
56 2
57 2
58 2
59 40
60 40
61 2
62 2
63 2
64 2
65 20
66 10
67 1
68 20
69 2
70 1
71 40
72 40
73 10
74 2
75 2
76 40
77 1
78 20
79 2
80 2
81 40
82 2
83 2
84 1
85 40
86 2
87 2
88 2
89 40
90 2
91 1
92 40
93 10
94 1
95 40
96 2
97 2
98 2
99 2
100 1
101 20
102 1
103 40
104 10
105 1
106 20
107 2
108 2
109 2
110 20
111 2
112 2
113 40
114 10
115 2
116 2
117 40
118 10
119 2
120 40
121 10
122 2
123 1
124 20
125 2
126 2
127 2
128 2
129 40
130 10
131 2
132 1
133 20
134 10
135 2
136 2
137 2
138 2
139 1
140 40
141 10
142 1
143 20
144 10
145 2
146 2
147 2
148 2
149 1
150 20
151 10
152 2
153 2
154 2
155 2
156 1
157 40
158 10
159 2
160 1
161 20
162 2
163 2
164 2
165 1
166 20
167 2
168 40
169 2
170 2
171 1
172 40
173 2
174 2
175 2
176 40
177 10
178 2
179 2
180 1
181 20
182 10
183 1
184 20
185 10
186 2
187 2
188 2
189 2
190 1
191 20
192 10
193 2
194 2
195 2
196 1
197 40
198 10
199 2
200 1
201 40
202 2
203 2
204 40
205 2
206 2
207 2
208 40
209 2
210 2
211 2
212 20
213 2
214 1
215 40
216 10
217 2
218 2
219 2
220 40
221 2
222 2
223 2
224 2
225 1
226 40
227 2
228 2
229 2
230 2
231 1
232 20
233 10
234 2
235 40
236 2
237 2
238 2
239 2
240 20
241 10
242 2
243 2
244 2
245 20
246 10
247 2
248 1
249 40
250 10
251 2
252 2
253 1
254 20
255 10
256 20
257 10
258 2
259 20
260 10
261 1
262 20
263 10
264 2
265 2
266 20
267 10
268 2
269 2
270 2
271 2
272 1
273 40
274 10
275 2
276 2
277 20
278 2
279 1
280 40
281 10
282 2
283 2
284 2
285 2
286 1
287 40
288 10
289 2
290 2
291 40
292 10
293 2
294 2
295 2
296 1
297 40
298 10
299 2
300 2
301 1
302 40
303 10
304 2
305 1
306 40
307 10
308 2
309 2
310 2
311 2
312 1
313 20
314 2
315 20
316 10
317 2
318 1
319 40
320 2
321 1
322 40
323 2
324 2
325 2
326 2
327 40
328 2
329 40
330 10
331 2
332 40
333 2
334 2
335 2
336 20
337 10
338 1
339 40
340 2
341 2
342 2
343 1
344 40
345 2
346 2
347 1
348 40
349 10
350 2
351 2
352 2
353 2
354 1
355 40
356 10
357 1
358 40
359 10
360 2
361 2
362 2
363 2
364 1
365 40
366 10
367 2
368 40
369 10
370 2
371 2
372 20
373 2
374 2
375 40
376 10
377 2
378 40
379 2
380 1
381 20
382 2
383 2
384 2
385 1
386 40
387 10
388 2
389 2
390 2
391 1
392 40
393 2
394 2
395 2
396 1
397 40
398 10
399 1
400 40
401 10
402 20
403 10
404 2
405 2
406 2
407 1
408 40
409 10
410 20
411 2
412 2
413 40
414 2
415 2
416 2
417 40
418 10
419 1
420 40
421 10
422 40
423 10
424 2
425 2
426 2
427 2
428 20
429 10
430 2
431 2
432 2
433 1
434 20
435 2
436 2
437 2
438 2
439 20
440 2
441 1
442 40
443 2
444 20
445 10
446 2
447 40
448 10
449 2
450 2
451 2
452 40
453 10
454 2
455 2
456 2
457 40
458 2
459 2
460 2
461 20
462 20
463 10
464 2
465 40
466 2
467 2
468 2
469 1
470 20
471 10
472 2
473 2
474 1
475 20
476 10
477 2
478 2
479 40
480 10
481 2
482 1
483 40
484 10
485 40
486 10
487 2
488 2
489 2
490 1
491 20
492 10
493 2
494 1
495 20
496 10
497 2
498 2
499 2
500 2
501 1
502 20
503 2
504 20
505 10
506 2
507 2
508 1
509 40
510 2
511 2
512 2
513 40
514 1
515 40
516 10
517 2
518 2
519 2
520 2
521 20
522 10
523 2
524 2
525 2
526 2
527 1
528 40
529 2
530 2
531 2
532 1
533 20
534 10
535 2
536 2
537 2
538 2
539 40
540 2
541 2
542 1
543 40
544 2
545 2
546 40
547 10
548 1
549 40
550 2
551 2
552 2
553 2
554 1
555 40
556 10
557 1
558 40
559 2
560 1
561 40
562 2
563 20
564 10
565 2
566 20
567 10
568 2
569 40
570 10
571 2
572 2
573 2
574 1
575 40
576 2
577 40
578 2
579 2
580 40
581 2
582 1
583 20
584 2
585 2
586 2
587 1
588 40
589 2
590 2
591 2
592 40
593 2
594 2
595 2
596 1
597 40
598 10
599 2
600 2
601 2
602 2
603 1
604 20
605 2
606 2
607 2
608 2
609 40
610 2
611 20
612 10
613 2
614 2
615 20
616 10
617 2
618 2
619 2
620 2
621 1
622 20
623 2
624 2
625 40
626 10
627 2
628 2
629 2
630 2
631 1
632 20
633 10
634 2
635 2
636 2
637 1
638 20
639 10
640 2
641 2
642 2
643 1
644 20
645 1
646 40
647 2
648 2
649 2
650 1
651 20
652 2
653 2
654 20
655 2
656 2
657 2
658 2
659 40
660 1
661 20
662 20
663 2
664 2
665 1
666 20
667 1
668 20
669 2
670 2
671 1
672 20
673 40
674 10
675 40
676 10
677 2
678 2
679 2
680 2
681 1
682 20
683 2
684 2
685 2
686 2
687 1
688 20
689 1
690 20
691 40
692 10
693 20
694 10
695 2
696 2
697 2
698 2
699 40
700 2
701 2
702 20
703 2
704 2
705 2
706 2
707 40
708 2
709 2
710 20
711 10
712 2
713 2
714 2
715 1
716 40
717 2
718 2
719 1
720 40
721 1
722 20
723 10
724 2
725 2
726 2
727 2
728 40
729 10
730 2
731 1
732 40
733 2
734 2
735 2
736 20
737 10
738 2
739 40
740 2
741 1
742 20
743 10
744 20
745 10
746 40
747 10
748 40
749 10
750 2
751 1
752 20
753 2
754 2
755 2
756 2
757 20
758 10
759 2
760 2
761 2
762 2
763 20
764 10
765 2
766 2
767 2
768 20
769 10
770 2
771 2
772 2
773 2
774 1
775 40
776 10
777 2
778 2
779 2
780 40
781 10
782 2
783 2
784 2
785 20
786 2
787 2
788 2
789 20
790 2
791 40
792 2
793 1
794 40
795 10
796 2
797 2
798 40
799 2
800 2
801 2
802 1
803 20
804 10
805 2
DEPOT_SECTION
1
-1
EOF