SDVRP instances/p05/p05_1030_tsplib0_split0.sol
804 -14 12 731 732 587 589 590 588 88 90 89 440 438 439 255 257 256 197 -17 363 362 361 357 358 16 359 455 452 453 454 451 508 511 509 -25 24 396 397 398 430 427 428 120 119 121 248 249 250 252 -32 30 281 282 344 343 345 346 553 549 551 552 548 550 349 350 352 351 347 353 348 668 667 670 669 613 611 612 -68 159 158 155 154 153 152 151 150 445 444 149 443 232 233 231 38 39 40 37 400 399 748 750 317 316 393 -69 67 314 315 156 157 532 536 534 51 47 50 49 48 200 -74 73 72 71 547 546 545 58 717 715 716 718 -86 87 473 472 470 471 469 584 582 585 586 583 305 311 309 310 308 307 306 199 196 198 737 735 736 -97 95 99 409 410 411 293 290 294 291 33 27 29 28 31 203 608 609 -107 106 108 62 60 61 63 59 636 632 634 635 631 633 419 22 20 21 420 18 19 217 -114 112 115 113 666 665 605 604 606 603 607 379 377 378 554 556 555 595 601 -122 778 777 776 741 742 764 765 766 763 762 168 167 170 169 802 803 804 558 559 557 783 781 782 -131 130 129 128 719 720 322 324 321 323 325 181 182 708 707 706 -142 143 148 147 146 144 145 671 689 44 46 45 207 210 208 209 610 -178 179 177 175 176 327 326 628 626 629 625 624 627 630 237 235 234 -185 638 642 639 641 640 637 137 138 135 134 136 133 132 496 494 495 498 499 500 497 673 672 564 562 563 -205 206 204 543 544 542 730 727 728 729 283 279 284 285 280 441 442 -215 218 214 621 623 23 26 394 391 392 512 -216 111 110 109 238 236 101 100 725 407 726 723 721 722 408 724 676 679 677 680 675 678 674 360 -247 246 180 418 35 417 34 36 416 709 714 710 712 713 711 263 264 262 261 123 125 124 126 127 516 -251 650 651 652 466 467 465 464 468 659 658 85 84 738 740 739 -253 254 744 743 368 369 370 367 560 561 579 580 581 -286 287 289 288 526 520 523 522 521 525 524 501 502 54 56 52 53 55 57 339 342 340 341 338 -292 295 483 482 319 318 320 43 42 531 530 528 527 529 687 688 202 201 683 685 686 -299 298 300 297 296 478 479 481 480 118 117 116 747 -365 366 364 139 140 141 75 76 503 504 505 506 507 105 406 -380 381 80 82 83 81 460 166 165 278 276 277 371 373 372 164 163 160 162 161 796 768 773 770 -384 382 383 644 643 461 463 462 576 578 577 374 375 376 574 575 -390 389 386 385 387 388 572 570 568 569 571 573 491 490 493 492 336 335 337 697 692 -395 620 616 618 615 619 434 433 437 436 435 172 174 171 173 224 223 222 221 219 220 13 11 10 15 475 474 477 476 -413 414 412 415 103 102 104 259 258 260 648 649 646 7 8 647 9 5 645 -424 422 426 423 421 425 275 273 272 274 655 657 654 653 656 65 66 64 751 754 755 752 753 -431 432 429 788 789 798 212 797 799 211 800 213 801 775 774 794 795 793 -457 459 458 456 269 267 271 268 270 266 265 746 745 354 355 356 6 622 -510 404 403 401 405 402 243 242 241 240 239 193 191 195 192 190 194 487 486 485 488 484 489 566 567 565 -513 329 330 328 541 540 539 538 756 757 758 760 759 761 662 664 661 663 313 312 41 533 537 535 -519 518 517 514 515 245 244 98 96 94 333 334 332 331 684 682 681 -596 600 597 599 598 602 70 594 592 593 591 301 302 304 303 733 734 -617 614 228 230 227 225 226 229 91 93 92 447 450 448 449 446 660 749 -690 691 186 188 183 187 189 184 704 701 703 705 702 700 699 698 77 79 78 694 696 695 693 -780 779 767 772 769 4 1 3 2 771 791 792 790 784 785 786 787 0 





OBJ=
2539.256
BEST_KNOWN=
0.000